NAME : traveling-santa-2018-prime-paths.29827.tour
COMMENT : Length = 29827
COMMENT : Found by LKH [Keld Helsgaun] Sun Jun 12 19:59:47 2022
TYPE : TOUR
DIMENSION : 100
TOUR_SECTION
1
13
10
85
57
44
34
67
5
55
88
36
50
9
30
77
82
92
29
28
25
39
95
93
14
78
15
3
79
81
43
22
98
91
90
58
76
70
11
72
23
69
26
94
45
59
73
33
8
64
31
49
35
53
75
71
65
18
2
19
24
41
7
97
40
100
83
68
4
54
46
84
99
47
32
12
20
6
21
80
27
52
86
89
87
74
61
42
48
38
62
60
56
51
63
37
66
17
96
16
-1
EOF
